p tw 100 16501 2 
1 3 
1 4 
1 5 
1 6 
1 7 
1 8 
1 9 
1 10 
1 11 
1 12 
1 13 
1 14 
1 15 
1 16 
1 17 
1 18 
1 19 
1 20 
1 21 
1 22 
1 23 
1 25 
1 34 
1 43 
1 44 
1 45 
1 46 
1 47 
1 48 
1 49 
1 50 
1 51 
2 3 
2 4 
2 5 
2 6 
2 7 
2 8 
2 9 
2 10 
2 11 
2 12 
2 13 
2 21 
2 24 
2 25 
2 26 
2 27 
2 28 
2 29 
2 30 
2 31 
2 32 
2 33 
2 39 
2 48 
2 56 
2 63 
2 67 
2 74 
2 84 
2 86 
2 90 
2 91 
3 4 
3 5 
3 6 
3 7 
3 8 
3 9 
3 10 
3 11 
3 12 
3 14 
3 15 
3 24 
3 33 
3 34 
3 35 
3 36 
3 37 
3 38 
3 39 
3 40 
3 41 
3 42 
3 45 
3 61 
3 69 
3 80 
3 88 
3 90 
3 92 
3 99 
3 100 
4 5 
4 6 
4 7 
4 8 
4 9 
4 10 
4 11 
4 12 
4 13 
4 15 
4 25 
4 35 
4 37 
4 44 
4 52 
4 53 
4 54 
4 55 
4 56 
4 57 
4 58 
4 59 
4 60 
4 66 
4 67 
4 68 
4 69 
4 70 
4 71 
4 72 
5 6 
5 7 
5 8 
5 9 
5 10 
5 11 
5 12 
5 16 
5 18 
5 26 
5 27 
5 34 
5 36 
5 43 
5 52 
5 54 
5 60 
5 61 
5 62 
5 63 
5 64 
5 65 
5 67 
5 78 
5 79 
5 80 
5 81 
5 82 
5 83 
6 7 
6 8 
6 9 
6 10 
6 11 
6 12 
6 17 
6 18 
6 27 
6 30 
6 36 
6 41 
6 45 
6 47 
6 53 
6 58 
6 64 
6 66 
6 72 
6 73 
6 74 
6 75 
6 76 
6 77 
6 85 
6 91 
6 97 
6 100 
7 8 
7 9 
7 10 
7 11 
7 12 
7 17 
7 19 
7 28 
7 32 
7 38 
7 42 
7 44 
7 46 
7 55 
7 59 
7 61 
7 63 
7 68 
7 73 
7 78 
7 82 
7 84 
7 85 
7 89 
7 93 
7 97 
7 99 
8 9 
8 10 
8 11 
8 12 
8 19 
8 20 
8 29 
8 31 
8 35 
8 37 
8 43 
8 47 
8 53 
8 62 
8 69 
8 74 
8 78 
8 79 
8 86 
8 87 
8 88 
8 89 
8 94 
8 95 
8 96 
8 97 
9 10 
9 11 
9 12 
9 21 
9 22 
9 30 
9 32 
9 38 
9 40 
9 48 
9 49 
9 54 
9 57 
9 60 
9 64 
9 68 
9 75 
9 76 
9 79 
9 87 
9 88 
9 92 
9 93 
9 94 
9 98 
10 11 
10 12 
10 14 
10 23 
10 26 
10 28 
10 40 
10 46 
10 51 
10 58 
10 59 
10 62 
10 70 
10 71 
10 75 
10 76 
10 81 
10 83 
10 86 
10 91 
10 92 
10 95 
10 96 
10 99 
11 12 
11 20 
11 22 
11 24 
11 31 
11 41 
11 49 
11 50 
11 52 
11 56 
11 65 
11 70 
11 71 
11 73 
11 77 
11 80 
11 81 
11 85 
11 89 
11 90 
11 93 
11 96 
11 98 
12 16 
12 23 
12 29 
12 33 
12 39 
12 42 
12 50 
12 51 
12 55 
12 57 
12 65 
12 66 
12 72 
12 77 
12 82 
12 83 
12 84 
12 87 
12 94 
12 95 
12 98 
12 100 
13 14 
13 15 
13 16 
13 17 
13 18 
13 19 
13 20 
13 21 
13 22 
13 23 
13 24 
13 25 
13 26 
13 27 
13 28 
13 29 
13 30 
13 31 
13 32 
13 33 
13 37 
13 44 
13 60 
13 66 
13 67 
13 68 
13 69 
13 70 
13 71 
13 72 
14 15 
14 16 
14 17 
14 18 
14 19 
14 20 
14 21 
14 22 
14 23 
14 24 
14 28 
14 34 
14 35 
14 36 
14 37 
14 38 
14 39 
14 40 
14 41 
14 42 
14 51 
14 59 
14 62 
14 71 
14 76 
14 83 
14 91 
14 92 
14 96 
15 16 
15 17 
15 18 
15 19 
15 20 
15 21 
15 22 
15 23 
15 25 
15 33 
15 35 
15 45 
15 52 
15 53 
15 54 
15 55 
15 56 
15 57 
15 58 
15 59 
15 61 
15 69 
15 80 
15 88 
15 90 
15 92 
15 99 
15 100 
16 17 
16 18 
16 19 
16 20 
16 21 
16 22 
16 23 
16 26 
16 33 
16 36 
16 39 
16 43 
16 51 
16 52 
16 55 
16 60 
16 61 
16 62 
16 63 
16 64 
16 65 
16 72 
16 77 
16 82 
16 87 
16 95 
16 98 
17 18 
17 19 
17 20 
17 21 
17 22 
17 23 
17 27 
17 32 
17 36 
17 42 
17 44 
17 45 
17 53 
17 59 
17 63 
17 66 
17 73 
17 74 
17 75 
17 76 
17 77 
17 82 
17 89 
17 93 
17 97 
17 99 
18 19 
18 20 
18 21 
18 22 
18 23 
18 27 
18 30 
18 34 
18 41 
18 47 
18 54 
18 58 
18 64 
18 67 
18 72 
18 78 
18 79 
18 80 
18 81 
18 82 
18 83 
18 85 
18 91 
18 97 
18 100 
19 20 
19 21 
19 22 
19 23 
19 28 
19 31 
19 35 
19 38 
19 43 
19 46 
19 55 
19 61 
19 68 
19 69 
19 73 
19 74 
19 78 
19 79 
19 84 
19 85 
19 94 
19 95 
19 96 
19 97 
20 21 
20 22 
20 23 
20 24 
20 29 
20 37 
20 47 
20 49 
20 53 
20 56 
20 62 
20 65 
20 70 
20 77 
20 78 
20 80 
20 85 
20 86 
20 87 
20 88 
20 89 
20 93 
20 96 
21 22 
21 23 
21 32 
21 39 
21 40 
21 48 
21 49 
21 54 
21 56 
21 63 
21 64 
21 67 
21 68 
21 74 
21 76 
21 84 
21 86 
21 88 
21 90 
21 91 
21 94 
21 98 
22 23 
22 30 
22 31 
22 38 
22 41 
22 48 
22 50 
22 52 
22 57 
22 60 
22 71 
22 73 
22 75 
22 79 
22 81 
22 87 
22 89 
22 90 
22 92 
22 93 
22 98 
23 26 
23 29 
23 40 
23 42 
23 46 
23 50 
23 57 
23 58 
23 65 
23 66 
23 70 
23 75 
23 81 
23 83 
23 84 
23 86 
23 94 
23 95 
23 99 
23 100 
24 25 
24 26 
24 27 
24 28 
24 29 
24 30 
24 31 
24 32 
24 33 
24 34 
24 35 
24 36 
24 37 
24 38 
24 39 
24 40 
24 41 
24 42 
24 49 
24 56 
24 65 
24 70 
24 77 
24 80 
24 85 
24 93 
24 96 
25 26 
25 27 
25 28 
25 29 
25 30 
25 31 
25 32 
25 33 
25 34 
25 35 
25 43 
25 44 
25 45 
25 46 
25 47 
25 48 
25 49 
25 50 
25 51 
25 52 
25 53 
25 54 
25 55 
25 56 
25 57 
25 58 
25 59 
26 27 
26 28 
26 29 
26 30 
26 31 
26 32 
26 33 
26 36 
26 40 
26 43 
26 46 
26 52 
26 58 
26 60 
26 61 
26 62 
26 63 
26 64 
26 65 
26 70 
26 75 
26 81 
26 86 
26 95 
26 99 
27 28 
27 29 
27 30 
27 31 
27 32 
27 33 
27 34 
27 36 
27 45 
27 53 
27 54 
27 66 
27 67 
27 73 
27 74 
27 75 
27 76 
27 77 
27 78 
27 79 
27 80 
27 81 
27 82 
27 83 
28 29 
28 30 
28 31 
28 32 
28 33 
28 38 
28 46 
28 51 
28 55 
28 59 
28 61 
28 62 
28 68 
28 71 
28 73 
28 76 
28 78 
28 83 
28 84 
28 85 
28 91 
28 92 
28 96 
29 30 
29 31 
29 32 
29 33 
29 37 
29 42 
29 47 
29 50 
29 53 
29 57 
29 62 
29 65 
29 66 
29 78 
29 83 
29 84 
29 86 
29 87 
29 88 
29 89 
29 94 
29 100 
30 31 
30 32 
30 33 
30 38 
30 41 
30 47 
30 48 
30 57 
30 58 
30 60 
30 64 
30 72 
30 75 
30 79 
30 85 
30 87 
30 91 
30 92 
30 93 
30 97 
30 100 
31 32 
31 33 
31 35 
31 41 
31 43 
31 50 
31 52 
31 69 
31 71 
31 73 
31 74 
31 79 
31 81 
31 89 
31 90 
31 94 
31 95 
31 96 
31 97 
31 98 
32 33 
32 40 
32 42 
32 44 
32 49 
32 54 
32 59 
32 63 
32 64 
32 68 
32 76 
32 82 
32 88 
32 89 
32 93 
32 94 
32 97 
32 98 
32 99 
33 39 
33 45 
33 51 
33 55 
33 61 
33 69 
33 72 
33 77 
33 80 
33 82 
33 87 
33 88 
33 90 
33 92 
33 95 
33 98 
33 99 
33 100 
34 35 
34 36 
34 37 
34 38 
34 39 
34 40 
34 41 
34 42 
34 43 
34 44 
34 45 
34 46 
34 47 
34 48 
34 49 
34 50 
34 51 
34 54 
34 67 
34 78 
34 79 
34 80 
34 81 
34 82 
34 83 
35 36 
35 37 
35 38 
35 39 
35 40 
35 41 
35 42 
35 43 
35 52 
35 53 
35 54 
35 55 
35 56 
35 57 
35 58 
35 59 
35 69 
35 74 
35 79 
35 94 
35 95 
35 96 
35 97 
36 37 
36 38 
36 39 
36 40 
36 41 
36 42 
36 43 
36 45 
36 52 
36 53 
36 60 
36 61 
36 62 
36 63 
36 64 
36 65 
36 66 
36 73 
36 74 
36 75 
36 76 
36 77 
37 38 
37 39 
37 40 
37 41 
37 42 
37 44 
37 47 
37 53 
37 60 
37 62 
37 66 
37 67 
37 68 
37 69 
37 70 
37 71 
37 72 
37 78 
37 86 
37 87 
37 88 
37 89 
38 39 
38 40 
38 41 
38 42 
38 46 
38 48 
38 55 
38 57 
38 60 
38 61 
38 68 
38 73 
38 75 
38 78 
38 79 
38 84 
38 85 
38 87 
38 92 
38 93 
39 40 
39 41 
39 42 
39 48 
39 51 
39 55 
39 56 
39 63 
39 67 
39 72 
39 74 
39 77 
39 82 
39 84 
39 86 
39 87 
39 90 
39 91 
39 95 
39 98 
40 41 
40 42 
40 46 
40 49 
40 54 
40 58 
40 64 
40 68 
40 70 
40 75 
40 76 
40 81 
40 86 
40 88 
40 94 
40 95 
40 98 
40 99 
41 42 
41 47 
41 50 
41 52 
41 58 
41 64 
41 71 
41 72 
41 73 
41 81 
41 85 
41 89 
41 90 
41 91 
41 97 
41 98 
41 100 
42 44 
42 50 
42 57 
42 59 
42 63 
42 65 
42 66 
42 82 
42 83 
42 84 
42 89 
42 93 
42 94 
42 97 
42 99 
42 100 
43 44 
43 45 
43 46 
43 47 
43 48 
43 49 
43 50 
43 51 
43 52 
43 60 
43 61 
43 62 
43 63 
43 64 
43 65 
43 69 
43 74 
43 79 
43 94 
43 95 
43 96 
43 97 
44 45 
44 46 
44 47 
44 48 
44 49 
44 50 
44 51 
44 59 
44 60 
44 63 
44 66 
44 67 
44 68 
44 69 
44 70 
44 71 
44 72 
44 82 
44 89 
44 93 
44 97 
44 99 
45 46 
45 47 
45 48 
45 49 
45 50 
45 51 
45 53 
45 61 
45 66 
45 69 
45 73 
45 74 
45 75 
45 76 
45 77 
45 80 
45 88 
45 90 
45 92 
45 99 
45 100 
46 47 
46 48 
46 49 
46 50 
46 51 
46 55 
46 58 
46 61 
46 68 
46 70 
46 73 
46 75 
46 78 
46 81 
46 84 
46 85 
46 86 
46 95 
46 99 
47 48 
47 49 
47 50 
47 51 
47 53 
47 58 
47 62 
47 64 
47 72 
47 78 
47 85 
47 86 
47 87 
47 88 
47 89 
47 91 
47 97 
47 100 
48 49 
48 50 
48 51 
48 56 
48 57 
48 60 
48 63 
48 67 
48 74 
48 75 
48 79 
48 84 
48 86 
48 87 
48 90 
48 91 
48 92 
48 93 
49 50 
49 51 
49 54 
49 56 
49 64 
49 65 
49 68 
49 70 
49 76 
49 77 
49 80 
49 85 
49 88 
49 93 
49 94 
49 96 
49 98 
50 51 
50 52 
50 57 
50 65 
50 66 
50 71 
50 73 
50 81 
50 83 
50 84 
50 89 
50 90 
50 94 
50 98 
50 100 
51 55 
51 59 
51 62 
51 71 
51 72 
51 76 
51 77 
51 82 
51 83 
51 87 
51 91 
51 92 
51 95 
51 96 
51 98 
52 53 
52 54 
52 55 
52 56 
52 57 
52 58 
52 59 
52 60 
52 61 
52 62 
52 63 
52 64 
52 65 
52 71 
52 73 
52 81 
52 89 
52 90 
52 98 
53 54 
53 55 
53 56 
53 57 
53 58 
53 59 
53 62 
53 66 
53 73 
53 74 
53 75 
53 76 
53 77 
53 78 
53 86 
53 87 
53 88 
53 89 
54 55 
54 56 
54 57 
54 58 
54 59 
54 64 
54 67 
54 68 
54 76 
54 78 
54 79 
54 80 
54 81 
54 82 
54 83 
54 88 
54 94 
54 98 
55 56 
55 57 
55 58 
55 59 
55 61 
55 68 
55 72 
55 73 
55 77 
55 78 
55 82 
55 84 
55 85 
55 87 
55 95 
55 98 
56 57 
56 58 
56 59 
56 63 
56 65 
56 67 
56 70 
56 74 
56 77 
56 80 
56 84 
56 85 
56 86 
56 90 
56 91 
56 93 
56 96 
57 58 
57 59 
57 60 
57 65 
57 66 
57 75 
57 79 
57 83 
57 84 
57 87 
57 92 
57 93 
57 94 
57 100 
58 59 
58 64 
58 70 
58 72 
58 75 
58 81 
58 85 
58 86 
58 91 
58 95 
58 97 
58 99 
58 100 
59 62 
59 63 
59 71 
59 76 
59 82 
59 83 
59 89 
59 91 
59 92 
59 93 
59 96 
59 97 
59 99 
60 61 
60 62 
60 63 
60 64 
60 65 
60 66 
60 67 
60 68 
60 69 
60 70 
60 71 
60 72 
60 75 
60 79 
60 87 
60 92 
60 93 
61 62 
61 63 
61 64 
61 65 
61 68 
61 69 
61 73 
61 78 
61 80 
61 84 
61 85 
61 88 
61 90 
61 92 
61 99 
61 100 
62 63 
62 64 
62 65 
62 71 
62 76 
62 78 
62 83 
62 86 
62 87 
62 88 
62 89 
62 91 
62 92 
62 96 
63 64 
63 65 
63 67 
63 74 
63 82 
63 84 
63 86 
63 89 
63 90 
63 91 
63 93 
63 97 
63 99 
64 65 
64 68 
64 72 
64 76 
64 85 
64 88 
64 91 
64 94 
64 97 
64 98 
64 100 
65 66 
65 70 
65 77 
65 80 
65 83 
65 84 
65 85 
65 93 
65 94 
65 96 
65 100 
66 67 
66 68 
66 69 
66 70 
66 71 
66 72 
66 73 
66 74 
66 75 
66 76 
66 77 
66 83 
66 84 
66 94 
66 100 
67 68 
67 69 
67 70 
67 71 
67 72 
67 74 
67 78 
67 79 
67 80 
67 81 
67 82 
67 83 
67 84 
67 86 
67 90 
67 91 
68 69 
68 70 
68 71 
68 72 
68 73 
68 76 
68 78 
68 84 
68 85 
68 88 
68 94 
68 98 
69 70 
69 71 
69 72 
69 74 
69 79 
69 80 
69 88 
69 90 
69 92 
69 94 
69 95 
69 96 
69 97 
69 99 
69 100 
70 71 
70 72 
70 75 
70 77 
70 80 
70 81 
70 85 
70 86 
70 93 
70 95 
70 96 
70 99 
71 72 
71 73 
71 76 
71 81 
71 83 
71 89 
71 90 
71 91 
71 92 
71 96 
71 98 
72 77 
72 82 
72 85 
72 87 
72 91 
72 95 
72 97 
72 98 
72 100 
73 74 
73 75 
73 76 
73 77 
73 78 
73 81 
73 84 
73 85 
73 89 
73 90 
73 98 
74 75 
74 76 
74 77 
74 79 
74 84 
74 86 
74 90 
74 91 
74 94 
74 95 
74 96 
74 97 
75 76 
75 77 
75 79 
75 81 
75 86 
75 87 
75 92 
75 93 
75 95 
75 99 
76 77 
76 83 
76 88 
76 91 
76 92 
76 94 
76 96 
76 98 
77 80 
77 82 
77 85 
77 87 
77 93 
77 95 
77 96 
77 98 
78 79 
78 80 
78 81 
78 82 
78 83 
78 84 
78 85 
78 86 
78 87 
78 88 
78 89 
79 80 
79 81 
79 82 
79 83 
79 87 
79 92 
79 93 
79 94 
79 95 
79 96 
79 97 
80 81 
80 82 
80 83 
80 85 
80 88 
80 90 
80 92 
80 93 
80 96 
80 99 
80 100 
81 82 
81 83 
81 86 
81 89 
81 90 
81 95 
81 98 
81 99 
82 83 
82 87 
82 89 
82 93 
82 95 
82 97 
82 98 
82 99 
83 84 
83 91 
83 92 
83 94 
83 96 
83 100 
84 85 
84 86 
84 90 
84 91 
84 94 
84 100 
85 91 
85 93 
85 96 
85 97 
85 100 
86 87 
86 88 
86 89 
86 90 
86 91 
86 95 
86 99 
87 88 
87 89 
87 92 
87 93 
87 95 
87 98 
88 89 
88 90 
88 92 
88 94 
88 98 
88 99 
88 100 
89 90 
89 93 
89 97 
89 98 
89 99 
90 91 
90 92 
90 98 
90 99 
90 100 
91 92 
91 96 
91 97 
91 100 
92 93 
92 96 
92 99 
92 100 
93 96 
93 97 
93 99 
94 95 
94 96 
94 97 
94 98 
94 100 
95 96 
95 97 
95 98 
95 99 
96 97 
97 99 
97 100 
99 100 
